3 
4  42 57 
5  12 32 48 
6  03 18 33 48 
7  03 18 33 48 
8  03 18 33 48 
9  03 18 33 48 
10  03 18 33 48 
11  03 18 33 48 
12  03 18 33 48 
13  03 18 33 48 
14  03 18 33 48 
15  03 18 33 48 
16  03 18 33 48 
17  03 18 33 48 
18  03 18 33 48 
19  03 18 33 48 
20  03 18 33 48 
21  03 18 33 48 
22  03 18 33 48 
23  07 
0 
